Route #1: 9 25 55 18 50 32 44
Route #2: 3 24 49 56 23 63 33
Route #3: 51 16 6 2 30 4
Route #4: 7 35 8 46 34 52 27
Route #5: 45 29 5 48 28 62
Route #6: 1 43 41 42 64 22 61
Route #7: 21 47 36 60 20 37 15 57
Route #8: 13 54 19 59 14 53
Route #9: 11 38 10 31 39
Route #10: 26 58 12 40 17
Cost 845